&CONTROL
calculation   = 'bands'
pseudo_dir    = '../pseudo/'
outdir        = '../tmp/'
prefix        = 'alp'
/
&SYSTEM
ibrav         = 2
celldm(1)     = 10.34
nat           = 2
ntyp          = 2
occupations   = 'smearing'
smearing      = 'cold'
degauss       = 0.020
ecutwfc       = 30
ecutrho       = 240
nbnd          = 16
noncolin      = .true.
lspinorb      = .true.
/
&ELECTRONS
mixing_beta   = 0.7
conv_thr      = 1.0e-10
/
ATOMIC_SPECIES
Al     26.981538 Al.rel-pbe-n-kjpaw_psl.1.0.0.UPF
P      30.973761 P.rel-pbe-n-kjpaw_psl.1.0.0.UPF
ATOMIC_POSITIONS crystal
Al           0.0000000000       0.0000000000       0.0000000000 
P            0.2500000000       0.2500000000       0.2500000000
K_POINTS (crystal_b)
5
0.0000 0.5000 0.0000 20  !L
0.0000 0.0000 0.0000 30  !G
-0.500 0.0000 -0.500 10  !X
-0.375 0.2500 -0.375 30  !U
0.0000 0.0000 0.0000 20  !G