&BANDS
 outdir  = '../tmp/'
 prefix  = 'alp'
 filband = 'alp.bands'
/
