num_bands     = 16
num_wann      = 8
num_iter      = 100
iprint        = 5

dis_win_max   =   6
dis_froz_max  =   5.0231
dis_num_iter  =  100
!spinor = T


wannier_plot  =  true
wannier_plot_supercell =  3


bands_plot      =  true
begin kpoint_path
L  0.0000  0.5000  0.0000  G  0.0000  0.0000  0.0000
G  0.0000  0.0000  0.0000  X  -0.500  0.0000  -0.500
X  -0.500  0.0000  -0.500  U  -0.375  0.2500  -0.375
U  -0.375  0.2500  -0.375  G  0.0000  0.0000  0.0000
end kpoint_path


begin projections
Al: sp3
P: sp3
end projections

begin atoms_frac
Al  0.00  0.00  0.00
P   0.25  0.25  0.25
end atoms_frac

begin unit_cell_cart
bohr
-5.17   0.00   5.17
 0.00   5.17   5.17
-5.17   5.17   0.00
end unit_cell_cart

mp_grid       =  8 8 8
begin kpoints
  0.00000000  0.00000000  0.00000000
  0.00000000  0.00000000  0.12500000
  0.00000000  0.00000000  0.25000000
  0.00000000  0.00000000  0.37500000
  0.00000000  0.00000000  0.50000000
  0.00000000  0.00000000  0.62500000
  0.00000000  0.00000000  0.75000000
  0.00000000  0.00000000  0.87500000
  0.00000000  0.12500000  0.00000000
  0.00000000  0.12500000  0.12500000
  0.00000000  0.12500000  0.25000000
  0.00000000  0.12500000  0.37500000
  0.00000000  0.12500000  0.50000000
  0.00000000  0.12500000  0.62500000
  0.00000000  0.12500000  0.75000000
  0.00000000  0.12500000  0.87500000
  0.00000000  0.25000000  0.00000000
  0.00000000  0.25000000  0.12500000
  0.00000000  0.25000000  0.25000000
  0.00000000  0.25000000  0.37500000
  0.00000000  0.25000000  0.50000000
  0.00000000  0.25000000  0.62500000
  0.00000000  0.25000000  0.75000000
  0.00000000  0.25000000  0.87500000
  0.00000000  0.37500000  0.00000000
  0.00000000  0.37500000  0.12500000
  0.00000000  0.37500000  0.25000000
  0.00000000  0.37500000  0.37500000
  0.00000000  0.37500000  0.50000000
  0.00000000  0.37500000  0.62500000
  0.00000000  0.37500000  0.75000000
  0.00000000  0.37500000  0.87500000
  0.00000000  0.50000000  0.00000000
  0.00000000  0.50000000  0.12500000
  0.00000000  0.50000000  0.25000000
  0.00000000  0.50000000  0.37500000
  0.00000000  0.50000000  0.50000000
  0.00000000  0.50000000  0.62500000
  0.00000000  0.50000000  0.75000000
  0.00000000  0.50000000  0.87500000
  0.00000000  0.62500000  0.00000000
  0.00000000  0.62500000  0.12500000
  0.00000000  0.62500000  0.25000000
  0.00000000  0.62500000  0.37500000
  0.00000000  0.62500000  0.50000000
  0.00000000  0.62500000  0.62500000
  0.00000000  0.62500000  0.75000000
  0.00000000  0.62500000  0.87500000
  0.00000000  0.75000000  0.00000000
  0.00000000  0.75000000  0.12500000
  0.00000000  0.75000000  0.25000000
  0.00000000  0.75000000  0.37500000
  0.00000000  0.75000000  0.50000000
  0.00000000  0.75000000  0.62500000
  0.00000000  0.75000000  0.75000000
  0.00000000  0.75000000  0.87500000
  0.00000000  0.87500000  0.00000000
  0.00000000  0.87500000  0.12500000
  0.00000000  0.87500000  0.25000000
  0.00000000  0.87500000  0.37500000
  0.00000000  0.87500000  0.50000000
  0.00000000  0.87500000  0.62500000
  0.00000000  0.87500000  0.75000000
  0.00000000  0.87500000  0.87500000
  0.12500000  0.00000000  0.00000000
  0.12500000  0.00000000  0.12500000
  0.12500000  0.00000000  0.25000000
  0.12500000  0.00000000  0.37500000
  0.12500000  0.00000000  0.50000000
  0.12500000  0.00000000  0.62500000
  0.12500000  0.00000000  0.75000000
  0.12500000  0.00000000  0.87500000
  0.12500000  0.12500000  0.00000000
  0.12500000  0.12500000  0.12500000
  0.12500000  0.12500000  0.25000000
  0.12500000  0.12500000  0.37500000
  0.12500000  0.12500000  0.50000000
  0.12500000  0.12500000  0.62500000
  0.12500000  0.12500000  0.75000000
  0.12500000  0.12500000  0.87500000
  0.12500000  0.25000000  0.00000000
  0.12500000  0.25000000  0.12500000
  0.12500000  0.25000000  0.25000000
  0.12500000  0.25000000  0.37500000
  0.12500000  0.25000000  0.50000000
  0.12500000  0.25000000  0.62500000
  0.12500000  0.25000000  0.75000000
  0.12500000  0.25000000  0.87500000
  0.12500000  0.37500000  0.00000000
  0.12500000  0.37500000  0.12500000
  0.12500000  0.37500000  0.25000000
  0.12500000  0.37500000  0.37500000
  0.12500000  0.37500000  0.50000000
  0.12500000  0.37500000  0.62500000
  0.12500000  0.37500000  0.75000000
  0.12500000  0.37500000  0.87500000
  0.12500000  0.50000000  0.00000000
  0.12500000  0.50000000  0.12500000
  0.12500000  0.50000000  0.25000000
  0.12500000  0.50000000  0.37500000
  0.12500000  0.50000000  0.50000000
  0.12500000  0.50000000  0.62500000
  0.12500000  0.50000000  0.75000000
  0.12500000  0.50000000  0.87500000
  0.12500000  0.62500000  0.00000000
  0.12500000  0.62500000  0.12500000
  0.12500000  0.62500000  0.25000000
  0.12500000  0.62500000  0.37500000
  0.12500000  0.62500000  0.50000000
  0.12500000  0.62500000  0.62500000
  0.12500000  0.62500000  0.75000000
  0.12500000  0.62500000  0.87500000
  0.12500000  0.75000000  0.00000000
  0.12500000  0.75000000  0.12500000
  0.12500000  0.75000000  0.25000000
  0.12500000  0.75000000  0.37500000
  0.12500000  0.75000000  0.50000000
  0.12500000  0.75000000  0.62500000
  0.12500000  0.75000000  0.75000000
  0.12500000  0.75000000  0.87500000
  0.12500000  0.87500000  0.00000000
  0.12500000  0.87500000  0.12500000
  0.12500000  0.87500000  0.25000000
  0.12500000  0.87500000  0.37500000
  0.12500000  0.87500000  0.50000000
  0.12500000  0.87500000  0.62500000
  0.12500000  0.87500000  0.75000000
  0.12500000  0.87500000  0.87500000
  0.25000000  0.00000000  0.00000000
  0.25000000  0.00000000  0.12500000
  0.25000000  0.00000000  0.25000000
  0.25000000  0.00000000  0.37500000
  0.25000000  0.00000000  0.50000000
  0.25000000  0.00000000  0.62500000
  0.25000000  0.00000000  0.75000000
  0.25000000  0.00000000  0.87500000
  0.25000000  0.12500000  0.00000000
  0.25000000  0.12500000  0.12500000
  0.25000000  0.12500000  0.25000000
  0.25000000  0.12500000  0.37500000
  0.25000000  0.12500000  0.50000000
  0.25000000  0.12500000  0.62500000
  0.25000000  0.12500000  0.75000000
  0.25000000  0.12500000  0.87500000
  0.25000000  0.25000000  0.00000000
  0.25000000  0.25000000  0.12500000
  0.25000000  0.25000000  0.25000000
  0.25000000  0.25000000  0.37500000
  0.25000000  0.25000000  0.50000000
  0.25000000  0.25000000  0.62500000
  0.25000000  0.25000000  0.75000000
  0.25000000  0.25000000  0.87500000
  0.25000000  0.37500000  0.00000000
  0.25000000  0.37500000  0.12500000
  0.25000000  0.37500000  0.25000000
  0.25000000  0.37500000  0.37500000
  0.25000000  0.37500000  0.50000000
  0.25000000  0.37500000  0.62500000
  0.25000000  0.37500000  0.75000000
  0.25000000  0.37500000  0.87500000
  0.25000000  0.50000000  0.00000000
  0.25000000  0.50000000  0.12500000
  0.25000000  0.50000000  0.25000000
  0.25000000  0.50000000  0.37500000
  0.25000000  0.50000000  0.50000000
  0.25000000  0.50000000  0.62500000
  0.25000000  0.50000000  0.75000000
  0.25000000  0.50000000  0.87500000
  0.25000000  0.62500000  0.00000000
  0.25000000  0.62500000  0.12500000
  0.25000000  0.62500000  0.25000000
  0.25000000  0.62500000  0.37500000
  0.25000000  0.62500000  0.50000000
  0.25000000  0.62500000  0.62500000
  0.25000000  0.62500000  0.75000000
  0.25000000  0.62500000  0.87500000
  0.25000000  0.75000000  0.00000000
  0.25000000  0.75000000  0.12500000
  0.25000000  0.75000000  0.25000000
  0.25000000  0.75000000  0.37500000
  0.25000000  0.75000000  0.50000000
  0.25000000  0.75000000  0.62500000
  0.25000000  0.75000000  0.75000000
  0.25000000  0.75000000  0.87500000
  0.25000000  0.87500000  0.00000000
  0.25000000  0.87500000  0.12500000
  0.25000000  0.87500000  0.25000000
  0.25000000  0.87500000  0.37500000
  0.25000000  0.87500000  0.50000000
  0.25000000  0.87500000  0.62500000
  0.25000000  0.87500000  0.75000000
  0.25000000  0.87500000  0.87500000
  0.37500000  0.00000000  0.00000000
  0.37500000  0.00000000  0.12500000
  0.37500000  0.00000000  0.25000000
  0.37500000  0.00000000  0.37500000
  0.37500000  0.00000000  0.50000000
  0.37500000  0.00000000  0.62500000
  0.37500000  0.00000000  0.75000000
  0.37500000  0.00000000  0.87500000
  0.37500000  0.12500000  0.00000000
  0.37500000  0.12500000  0.12500000
  0.37500000  0.12500000  0.25000000
  0.37500000  0.12500000  0.37500000
  0.37500000  0.12500000  0.50000000
  0.37500000  0.12500000  0.62500000
  0.37500000  0.12500000  0.75000000
  0.37500000  0.12500000  0.87500000
  0.37500000  0.25000000  0.00000000
  0.37500000  0.25000000  0.12500000
  0.37500000  0.25000000  0.25000000
  0.37500000  0.25000000  0.37500000
  0.37500000  0.25000000  0.50000000
  0.37500000  0.25000000  0.62500000
  0.37500000  0.25000000  0.75000000
  0.37500000  0.25000000  0.87500000
  0.37500000  0.37500000  0.00000000
  0.37500000  0.37500000  0.12500000
  0.37500000  0.37500000  0.25000000
  0.37500000  0.37500000  0.37500000
  0.37500000  0.37500000  0.50000000
  0.37500000  0.37500000  0.62500000
  0.37500000  0.37500000  0.75000000
  0.37500000  0.37500000  0.87500000
  0.37500000  0.50000000  0.00000000
  0.37500000  0.50000000  0.12500000
  0.37500000  0.50000000  0.25000000
  0.37500000  0.50000000  0.37500000
  0.37500000  0.50000000  0.50000000
  0.37500000  0.50000000  0.62500000
  0.37500000  0.50000000  0.75000000
  0.37500000  0.50000000  0.87500000
  0.37500000  0.62500000  0.00000000
  0.37500000  0.62500000  0.12500000
  0.37500000  0.62500000  0.25000000
  0.37500000  0.62500000  0.37500000
  0.37500000  0.62500000  0.50000000
  0.37500000  0.62500000  0.62500000
  0.37500000  0.62500000  0.75000000
  0.37500000  0.62500000  0.87500000
  0.37500000  0.75000000  0.00000000
  0.37500000  0.75000000  0.12500000
  0.37500000  0.75000000  0.25000000
  0.37500000  0.75000000  0.37500000
  0.37500000  0.75000000  0.50000000
  0.37500000  0.75000000  0.62500000
  0.37500000  0.75000000  0.75000000
  0.37500000  0.75000000  0.87500000
  0.37500000  0.87500000  0.00000000
  0.37500000  0.87500000  0.12500000
  0.37500000  0.87500000  0.25000000
  0.37500000  0.87500000  0.37500000
  0.37500000  0.87500000  0.50000000
  0.37500000  0.87500000  0.62500000
  0.37500000  0.87500000  0.75000000
  0.37500000  0.87500000  0.87500000
  0.50000000  0.00000000  0.00000000
  0.50000000  0.00000000  0.12500000
  0.50000000  0.00000000  0.25000000
  0.50000000  0.00000000  0.37500000
  0.50000000  0.00000000  0.50000000
  0.50000000  0.00000000  0.62500000
  0.50000000  0.00000000  0.75000000
  0.50000000  0.00000000  0.87500000
  0.50000000  0.12500000  0.00000000
  0.50000000  0.12500000  0.12500000
  0.50000000  0.12500000  0.25000000
  0.50000000  0.12500000  0.37500000
  0.50000000  0.12500000  0.50000000
  0.50000000  0.12500000  0.62500000
  0.50000000  0.12500000  0.75000000
  0.50000000  0.12500000  0.87500000
  0.50000000  0.25000000  0.00000000
  0.50000000  0.25000000  0.12500000
  0.50000000  0.25000000  0.25000000
  0.50000000  0.25000000  0.37500000
  0.50000000  0.25000000  0.50000000
  0.50000000  0.25000000  0.62500000
  0.50000000  0.25000000  0.75000000
  0.50000000  0.25000000  0.87500000
  0.50000000  0.37500000  0.00000000
  0.50000000  0.37500000  0.12500000
  0.50000000  0.37500000  0.25000000
  0.50000000  0.37500000  0.37500000
  0.50000000  0.37500000  0.50000000
  0.50000000  0.37500000  0.62500000
  0.50000000  0.37500000  0.75000000
  0.50000000  0.37500000  0.87500000
  0.50000000  0.50000000  0.00000000
  0.50000000  0.50000000  0.12500000
  0.50000000  0.50000000  0.25000000
  0.50000000  0.50000000  0.37500000
  0.50000000  0.50000000  0.50000000
  0.50000000  0.50000000  0.62500000
  0.50000000  0.50000000  0.75000000
  0.50000000  0.50000000  0.87500000
  0.50000000  0.62500000  0.00000000
  0.50000000  0.62500000  0.12500000
  0.50000000  0.62500000  0.25000000
  0.50000000  0.62500000  0.37500000
  0.50000000  0.62500000  0.50000000
  0.50000000  0.62500000  0.62500000
  0.50000000  0.62500000  0.75000000
  0.50000000  0.62500000  0.87500000
  0.50000000  0.75000000  0.00000000
  0.50000000  0.75000000  0.12500000
  0.50000000  0.75000000  0.25000000
  0.50000000  0.75000000  0.37500000
  0.50000000  0.75000000  0.50000000
  0.50000000  0.75000000  0.62500000
  0.50000000  0.75000000  0.75000000
  0.50000000  0.75000000  0.87500000
  0.50000000  0.87500000  0.00000000
  0.50000000  0.87500000  0.12500000
  0.50000000  0.87500000  0.25000000
  0.50000000  0.87500000  0.37500000
  0.50000000  0.87500000  0.50000000
  0.50000000  0.87500000  0.62500000
  0.50000000  0.87500000  0.75000000
  0.50000000  0.87500000  0.87500000
  0.62500000  0.00000000  0.00000000
  0.62500000  0.00000000  0.12500000
  0.62500000  0.00000000  0.25000000
  0.62500000  0.00000000  0.37500000
  0.62500000  0.00000000  0.50000000
  0.62500000  0.00000000  0.62500000
  0.62500000  0.00000000  0.75000000
  0.62500000  0.00000000  0.87500000
  0.62500000  0.12500000  0.00000000
  0.62500000  0.12500000  0.12500000
  0.62500000  0.12500000  0.25000000
  0.62500000  0.12500000  0.37500000
  0.62500000  0.12500000  0.50000000
  0.62500000  0.12500000  0.62500000
  0.62500000  0.12500000  0.75000000
  0.62500000  0.12500000  0.87500000
  0.62500000  0.25000000  0.00000000
  0.62500000  0.25000000  0.12500000
  0.62500000  0.25000000  0.25000000
  0.62500000  0.25000000  0.37500000
  0.62500000  0.25000000  0.50000000
  0.62500000  0.25000000  0.62500000
  0.62500000  0.25000000  0.75000000
  0.62500000  0.25000000  0.87500000
  0.62500000  0.37500000  0.00000000
  0.62500000  0.37500000  0.12500000
  0.62500000  0.37500000  0.25000000
  0.62500000  0.37500000  0.37500000
  0.62500000  0.37500000  0.50000000
  0.62500000  0.37500000  0.62500000
  0.62500000  0.37500000  0.75000000
  0.62500000  0.37500000  0.87500000
  0.62500000  0.50000000  0.00000000
  0.62500000  0.50000000  0.12500000
  0.62500000  0.50000000  0.25000000
  0.62500000  0.50000000  0.37500000
  0.62500000  0.50000000  0.50000000
  0.62500000  0.50000000  0.62500000
  0.62500000  0.50000000  0.75000000
  0.62500000  0.50000000  0.87500000
  0.62500000  0.62500000  0.00000000
  0.62500000  0.62500000  0.12500000
  0.62500000  0.62500000  0.25000000
  0.62500000  0.62500000  0.37500000
  0.62500000  0.62500000  0.50000000
  0.62500000  0.62500000  0.62500000
  0.62500000  0.62500000  0.75000000
  0.62500000  0.62500000  0.87500000
  0.62500000  0.75000000  0.00000000
  0.62500000  0.75000000  0.12500000
  0.62500000  0.75000000  0.25000000
  0.62500000  0.75000000  0.37500000
  0.62500000  0.75000000  0.50000000
  0.62500000  0.75000000  0.62500000
  0.62500000  0.75000000  0.75000000
  0.62500000  0.75000000  0.87500000
  0.62500000  0.87500000  0.00000000
  0.62500000  0.87500000  0.12500000
  0.62500000  0.87500000  0.25000000
  0.62500000  0.87500000  0.37500000
  0.62500000  0.87500000  0.50000000
  0.62500000  0.87500000  0.62500000
  0.62500000  0.87500000  0.75000000
  0.62500000  0.87500000  0.87500000
  0.75000000  0.00000000  0.00000000
  0.75000000  0.00000000  0.12500000
  0.75000000  0.00000000  0.25000000
  0.75000000  0.00000000  0.37500000
  0.75000000  0.00000000  0.50000000
  0.75000000  0.00000000  0.62500000
  0.75000000  0.00000000  0.75000000
  0.75000000  0.00000000  0.87500000
  0.75000000  0.12500000  0.00000000
  0.75000000  0.12500000  0.12500000
  0.75000000  0.12500000  0.25000000
  0.75000000  0.12500000  0.37500000
  0.75000000  0.12500000  0.50000000
  0.75000000  0.12500000  0.62500000
  0.75000000  0.12500000  0.75000000
  0.75000000  0.12500000  0.87500000
  0.75000000  0.25000000  0.00000000
  0.75000000  0.25000000  0.12500000
  0.75000000  0.25000000  0.25000000
  0.75000000  0.25000000  0.37500000
  0.75000000  0.25000000  0.50000000
  0.75000000  0.25000000  0.62500000
  0.75000000  0.25000000  0.75000000
  0.75000000  0.25000000  0.87500000
  0.75000000  0.37500000  0.00000000
  0.75000000  0.37500000  0.12500000
  0.75000000  0.37500000  0.25000000
  0.75000000  0.37500000  0.37500000
  0.75000000  0.37500000  0.50000000
  0.75000000  0.37500000  0.62500000
  0.75000000  0.37500000  0.75000000
  0.75000000  0.37500000  0.87500000
  0.75000000  0.50000000  0.00000000
  0.75000000  0.50000000  0.12500000
  0.75000000  0.50000000  0.25000000
  0.75000000  0.50000000  0.37500000
  0.75000000  0.50000000  0.50000000
  0.75000000  0.50000000  0.62500000
  0.75000000  0.50000000  0.75000000
  0.75000000  0.50000000  0.87500000
  0.75000000  0.62500000  0.00000000
  0.75000000  0.62500000  0.12500000
  0.75000000  0.62500000  0.25000000
  0.75000000  0.62500000  0.37500000
  0.75000000  0.62500000  0.50000000
  0.75000000  0.62500000  0.62500000
  0.75000000  0.62500000  0.75000000
  0.75000000  0.62500000  0.87500000
  0.75000000  0.75000000  0.00000000
  0.75000000  0.75000000  0.12500000
  0.75000000  0.75000000  0.25000000
  0.75000000  0.75000000  0.37500000
  0.75000000  0.75000000  0.50000000
  0.75000000  0.75000000  0.62500000
  0.75000000  0.75000000  0.75000000
  0.75000000  0.75000000  0.87500000
  0.75000000  0.87500000  0.00000000
  0.75000000  0.87500000  0.12500000
  0.75000000  0.87500000  0.25000000
  0.75000000  0.87500000  0.37500000
  0.75000000  0.87500000  0.50000000
  0.75000000  0.87500000  0.62500000
  0.75000000  0.87500000  0.75000000
  0.75000000  0.87500000  0.87500000
  0.87500000  0.00000000  0.00000000
  0.87500000  0.00000000  0.12500000
  0.87500000  0.00000000  0.25000000
  0.87500000  0.00000000  0.37500000
  0.87500000  0.00000000  0.50000000
  0.87500000  0.00000000  0.62500000
  0.87500000  0.00000000  0.75000000
  0.87500000  0.00000000  0.87500000
  0.87500000  0.12500000  0.00000000
  0.87500000  0.12500000  0.12500000
  0.87500000  0.12500000  0.25000000
  0.87500000  0.12500000  0.37500000
  0.87500000  0.12500000  0.50000000
  0.87500000  0.12500000  0.62500000
  0.87500000  0.12500000  0.75000000
  0.87500000  0.12500000  0.87500000
  0.87500000  0.25000000  0.00000000
  0.87500000  0.25000000  0.12500000
  0.87500000  0.25000000  0.25000000
  0.87500000  0.25000000  0.37500000
  0.87500000  0.25000000  0.50000000
  0.87500000  0.25000000  0.62500000
  0.87500000  0.25000000  0.75000000
  0.87500000  0.25000000  0.87500000
  0.87500000  0.37500000  0.00000000
  0.87500000  0.37500000  0.12500000
  0.87500000  0.37500000  0.25000000
  0.87500000  0.37500000  0.37500000
  0.87500000  0.37500000  0.50000000
  0.87500000  0.37500000  0.62500000
  0.87500000  0.37500000  0.75000000
  0.87500000  0.37500000  0.87500000
  0.87500000  0.50000000  0.00000000
  0.87500000  0.50000000  0.12500000
  0.87500000  0.50000000  0.25000000
  0.87500000  0.50000000  0.37500000
  0.87500000  0.50000000  0.50000000
  0.87500000  0.50000000  0.62500000
  0.87500000  0.50000000  0.75000000
  0.87500000  0.50000000  0.87500000
  0.87500000  0.62500000  0.00000000
  0.87500000  0.62500000  0.12500000
  0.87500000  0.62500000  0.25000000
  0.87500000  0.62500000  0.37500000
  0.87500000  0.62500000  0.50000000
  0.87500000  0.62500000  0.62500000
  0.87500000  0.62500000  0.75000000
  0.87500000  0.62500000  0.87500000
  0.87500000  0.75000000  0.00000000
  0.87500000  0.75000000  0.12500000
  0.87500000  0.75000000  0.25000000
  0.87500000  0.75000000  0.37500000
  0.87500000  0.75000000  0.50000000
  0.87500000  0.75000000  0.62500000
  0.87500000  0.75000000  0.75000000
  0.87500000  0.75000000  0.87500000
  0.87500000  0.87500000  0.00000000
  0.87500000  0.87500000  0.12500000
  0.87500000  0.87500000  0.25000000
  0.87500000  0.87500000  0.37500000
  0.87500000  0.87500000  0.50000000
  0.87500000  0.87500000  0.62500000
  0.87500000  0.87500000  0.75000000
  0.87500000  0.87500000  0.87500000
end kpoints