&CONTROL
calculation   = 'nscf'
pseudo_dir    = '../pseudo/'
outdir        = '../tmp/'
prefix        = 'alp'
verbosity    = 'high'
/
&SYSTEM
ibrav         = 2
celldm(1)     = 10.34
nat           = 2
ntyp          = 2
occupations   = 'smearing'
smearing      = 'cold'
degauss       = 0.020
ecutwfc       = 30
ecutrho       = 240
nbnd          = 16
noncolin      = .true.
lspinorb      = .true.
nosym         = .true.
/
&ELECTRONS
mixing_beta   = 0.70
conv_thr      = 1.0e-10
/
ATOMIC_SPECIES
Al     26.981538 Al.rel-pbe-n-kjpaw_psl.1.0.0.UPF
P      30.973761 P.rel-pbe-n-kjpaw_psl.1.0.0.UPF
ATOMIC_POSITIONS crystal
Al           0.0000000000       0.0000000000       0.0000000000 
P            0.2500000000       0.2500000000       0.2500000000
K_POINTS crystal
512
  0.00000000  0.00000000  0.00000000  1.953125e-03 
  0.00000000  0.00000000  0.12500000  1.953125e-03 
  0.00000000  0.00000000  0.25000000  1.953125e-03 
  0.00000000  0.00000000  0.37500000  1.953125e-03 
  0.00000000  0.00000000  0.50000000  1.953125e-03 
  0.00000000  0.00000000  0.62500000  1.953125e-03 
  0.00000000  0.00000000  0.75000000  1.953125e-03 
  0.00000000  0.00000000  0.87500000  1.953125e-03 
  0.00000000  0.12500000  0.00000000  1.953125e-03 
  0.00000000  0.12500000  0.12500000  1.953125e-03 
  0.00000000  0.12500000  0.25000000  1.953125e-03 
  0.00000000  0.12500000  0.37500000  1.953125e-03 
  0.00000000  0.12500000  0.50000000  1.953125e-03 
  0.00000000  0.12500000  0.62500000  1.953125e-03 
  0.00000000  0.12500000  0.75000000  1.953125e-03 
  0.00000000  0.12500000  0.87500000  1.953125e-03 
  0.00000000  0.25000000  0.00000000  1.953125e-03 
  0.00000000  0.25000000  0.12500000  1.953125e-03 
  0.00000000  0.25000000  0.25000000  1.953125e-03 
  0.00000000  0.25000000  0.37500000  1.953125e-03 
  0.00000000  0.25000000  0.50000000  1.953125e-03 
  0.00000000  0.25000000  0.62500000  1.953125e-03 
  0.00000000  0.25000000  0.75000000  1.953125e-03 
  0.00000000  0.25000000  0.87500000  1.953125e-03 
  0.00000000  0.37500000  0.00000000  1.953125e-03 
  0.00000000  0.37500000  0.12500000  1.953125e-03 
  0.00000000  0.37500000  0.25000000  1.953125e-03 
  0.00000000  0.37500000  0.37500000  1.953125e-03 
  0.00000000  0.37500000  0.50000000  1.953125e-03 
  0.00000000  0.37500000  0.62500000  1.953125e-03 
  0.00000000  0.37500000  0.75000000  1.953125e-03 
  0.00000000  0.37500000  0.87500000  1.953125e-03 
  0.00000000  0.50000000  0.00000000  1.953125e-03 
  0.00000000  0.50000000  0.12500000  1.953125e-03 
  0.00000000  0.50000000  0.25000000  1.953125e-03 
  0.00000000  0.50000000  0.37500000  1.953125e-03 
  0.00000000  0.50000000  0.50000000  1.953125e-03 
  0.00000000  0.50000000  0.62500000  1.953125e-03 
  0.00000000  0.50000000  0.75000000  1.953125e-03 
  0.00000000  0.50000000  0.87500000  1.953125e-03 
  0.00000000  0.62500000  0.00000000  1.953125e-03 
  0.00000000  0.62500000  0.12500000  1.953125e-03 
  0.00000000  0.62500000  0.25000000  1.953125e-03 
  0.00000000  0.62500000  0.37500000  1.953125e-03 
  0.00000000  0.62500000  0.50000000  1.953125e-03 
  0.00000000  0.62500000  0.62500000  1.953125e-03 
  0.00000000  0.62500000  0.75000000  1.953125e-03 
  0.00000000  0.62500000  0.87500000  1.953125e-03 
  0.00000000  0.75000000  0.00000000  1.953125e-03 
  0.00000000  0.75000000  0.12500000  1.953125e-03 
  0.00000000  0.75000000  0.25000000  1.953125e-03 
  0.00000000  0.75000000  0.37500000  1.953125e-03 
  0.00000000  0.75000000  0.50000000  1.953125e-03 
  0.00000000  0.75000000  0.62500000  1.953125e-03 
  0.00000000  0.75000000  0.75000000  1.953125e-03 
  0.00000000  0.75000000  0.87500000  1.953125e-03 
  0.00000000  0.87500000  0.00000000  1.953125e-03 
  0.00000000  0.87500000  0.12500000  1.953125e-03 
  0.00000000  0.87500000  0.25000000  1.953125e-03 
  0.00000000  0.87500000  0.37500000  1.953125e-03 
  0.00000000  0.87500000  0.50000000  1.953125e-03 
  0.00000000  0.87500000  0.62500000  1.953125e-03 
  0.00000000  0.87500000  0.75000000  1.953125e-03 
  0.00000000  0.87500000  0.87500000  1.953125e-03 
  0.12500000  0.00000000  0.00000000  1.953125e-03 
  0.12500000  0.00000000  0.12500000  1.953125e-03 
  0.12500000  0.00000000  0.25000000  1.953125e-03 
  0.12500000  0.00000000  0.37500000  1.953125e-03 
  0.12500000  0.00000000  0.50000000  1.953125e-03 
  0.12500000  0.00000000  0.62500000  1.953125e-03 
  0.12500000  0.00000000  0.75000000  1.953125e-03 
  0.12500000  0.00000000  0.87500000  1.953125e-03 
  0.12500000  0.12500000  0.00000000  1.953125e-03 
  0.12500000  0.12500000  0.12500000  1.953125e-03 
  0.12500000  0.12500000  0.25000000  1.953125e-03 
  0.12500000  0.12500000  0.37500000  1.953125e-03 
  0.12500000  0.12500000  0.50000000  1.953125e-03 
  0.12500000  0.12500000  0.62500000  1.953125e-03 
  0.12500000  0.12500000  0.75000000  1.953125e-03 
  0.12500000  0.12500000  0.87500000  1.953125e-03 
  0.12500000  0.25000000  0.00000000  1.953125e-03 
  0.12500000  0.25000000  0.12500000  1.953125e-03 
  0.12500000  0.25000000  0.25000000  1.953125e-03 
  0.12500000  0.25000000  0.37500000  1.953125e-03 
  0.12500000  0.25000000  0.50000000  1.953125e-03 
  0.12500000  0.25000000  0.62500000  1.953125e-03 
  0.12500000  0.25000000  0.75000000  1.953125e-03 
  0.12500000  0.25000000  0.87500000  1.953125e-03 
  0.12500000  0.37500000  0.00000000  1.953125e-03 
  0.12500000  0.37500000  0.12500000  1.953125e-03 
  0.12500000  0.37500000  0.25000000  1.953125e-03 
  0.12500000  0.37500000  0.37500000  1.953125e-03 
  0.12500000  0.37500000  0.50000000  1.953125e-03 
  0.12500000  0.37500000  0.62500000  1.953125e-03 
  0.12500000  0.37500000  0.75000000  1.953125e-03 
  0.12500000  0.37500000  0.87500000  1.953125e-03 
  0.12500000  0.50000000  0.00000000  1.953125e-03 
  0.12500000  0.50000000  0.12500000  1.953125e-03 
  0.12500000  0.50000000  0.25000000  1.953125e-03 
  0.12500000  0.50000000  0.37500000  1.953125e-03 
  0.12500000  0.50000000  0.50000000  1.953125e-03 
  0.12500000  0.50000000  0.62500000  1.953125e-03 
  0.12500000  0.50000000  0.75000000  1.953125e-03 
  0.12500000  0.50000000  0.87500000  1.953125e-03 
  0.12500000  0.62500000  0.00000000  1.953125e-03 
  0.12500000  0.62500000  0.12500000  1.953125e-03 
  0.12500000  0.62500000  0.25000000  1.953125e-03 
  0.12500000  0.62500000  0.37500000  1.953125e-03 
  0.12500000  0.62500000  0.50000000  1.953125e-03 
  0.12500000  0.62500000  0.62500000  1.953125e-03 
  0.12500000  0.62500000  0.75000000  1.953125e-03 
  0.12500000  0.62500000  0.87500000  1.953125e-03 
  0.12500000  0.75000000  0.00000000  1.953125e-03 
  0.12500000  0.75000000  0.12500000  1.953125e-03 
  0.12500000  0.75000000  0.25000000  1.953125e-03 
  0.12500000  0.75000000  0.37500000  1.953125e-03 
  0.12500000  0.75000000  0.50000000  1.953125e-03 
  0.12500000  0.75000000  0.62500000  1.953125e-03 
  0.12500000  0.75000000  0.75000000  1.953125e-03 
  0.12500000  0.75000000  0.87500000  1.953125e-03 
  0.12500000  0.87500000  0.00000000  1.953125e-03 
  0.12500000  0.87500000  0.12500000  1.953125e-03 
  0.12500000  0.87500000  0.25000000  1.953125e-03 
  0.12500000  0.87500000  0.37500000  1.953125e-03 
  0.12500000  0.87500000  0.50000000  1.953125e-03 
  0.12500000  0.87500000  0.62500000  1.953125e-03 
  0.12500000  0.87500000  0.75000000  1.953125e-03 
  0.12500000  0.87500000  0.87500000  1.953125e-03 
  0.25000000  0.00000000  0.00000000  1.953125e-03 
  0.25000000  0.00000000  0.12500000  1.953125e-03 
  0.25000000  0.00000000  0.25000000  1.953125e-03 
  0.25000000  0.00000000  0.37500000  1.953125e-03 
  0.25000000  0.00000000  0.50000000  1.953125e-03 
  0.25000000  0.00000000  0.62500000  1.953125e-03 
  0.25000000  0.00000000  0.75000000  1.953125e-03 
  0.25000000  0.00000000  0.87500000  1.953125e-03 
  0.25000000  0.12500000  0.00000000  1.953125e-03 
  0.25000000  0.12500000  0.12500000  1.953125e-03 
  0.25000000  0.12500000  0.25000000  1.953125e-03 
  0.25000000  0.12500000  0.37500000  1.953125e-03 
  0.25000000  0.12500000  0.50000000  1.953125e-03 
  0.25000000  0.12500000  0.62500000  1.953125e-03 
  0.25000000  0.12500000  0.75000000  1.953125e-03 
  0.25000000  0.12500000  0.87500000  1.953125e-03 
  0.25000000  0.25000000  0.00000000  1.953125e-03 
  0.25000000  0.25000000  0.12500000  1.953125e-03 
  0.25000000  0.25000000  0.25000000  1.953125e-03 
  0.25000000  0.25000000  0.37500000  1.953125e-03 
  0.25000000  0.25000000  0.50000000  1.953125e-03 
  0.25000000  0.25000000  0.62500000  1.953125e-03 
  0.25000000  0.25000000  0.75000000  1.953125e-03 
  0.25000000  0.25000000  0.87500000  1.953125e-03 
  0.25000000  0.37500000  0.00000000  1.953125e-03 
  0.25000000  0.37500000  0.12500000  1.953125e-03 
  0.25000000  0.37500000  0.25000000  1.953125e-03 
  0.25000000  0.37500000  0.37500000  1.953125e-03 
  0.25000000  0.37500000  0.50000000  1.953125e-03 
  0.25000000  0.37500000  0.62500000  1.953125e-03 
  0.25000000  0.37500000  0.75000000  1.953125e-03 
  0.25000000  0.37500000  0.87500000  1.953125e-03 
  0.25000000  0.50000000  0.00000000  1.953125e-03 
  0.25000000  0.50000000  0.12500000  1.953125e-03 
  0.25000000  0.50000000  0.25000000  1.953125e-03 
  0.25000000  0.50000000  0.37500000  1.953125e-03 
  0.25000000  0.50000000  0.50000000  1.953125e-03 
  0.25000000  0.50000000  0.62500000  1.953125e-03 
  0.25000000  0.50000000  0.75000000  1.953125e-03 
  0.25000000  0.50000000  0.87500000  1.953125e-03 
  0.25000000  0.62500000  0.00000000  1.953125e-03 
  0.25000000  0.62500000  0.12500000  1.953125e-03 
  0.25000000  0.62500000  0.25000000  1.953125e-03 
  0.25000000  0.62500000  0.37500000  1.953125e-03 
  0.25000000  0.62500000  0.50000000  1.953125e-03 
  0.25000000  0.62500000  0.62500000  1.953125e-03 
  0.25000000  0.62500000  0.75000000  1.953125e-03 
  0.25000000  0.62500000  0.87500000  1.953125e-03 
  0.25000000  0.75000000  0.00000000  1.953125e-03 
  0.25000000  0.75000000  0.12500000  1.953125e-03 
  0.25000000  0.75000000  0.25000000  1.953125e-03 
  0.25000000  0.75000000  0.37500000  1.953125e-03 
  0.25000000  0.75000000  0.50000000  1.953125e-03 
  0.25000000  0.75000000  0.62500000  1.953125e-03 
  0.25000000  0.75000000  0.75000000  1.953125e-03 
  0.25000000  0.75000000  0.87500000  1.953125e-03 
  0.25000000  0.87500000  0.00000000  1.953125e-03 
  0.25000000  0.87500000  0.12500000  1.953125e-03 
  0.25000000  0.87500000  0.25000000  1.953125e-03 
  0.25000000  0.87500000  0.37500000  1.953125e-03 
  0.25000000  0.87500000  0.50000000  1.953125e-03 
  0.25000000  0.87500000  0.62500000  1.953125e-03 
  0.25000000  0.87500000  0.75000000  1.953125e-03 
  0.25000000  0.87500000  0.87500000  1.953125e-03 
  0.37500000  0.00000000  0.00000000  1.953125e-03 
  0.37500000  0.00000000  0.12500000  1.953125e-03 
  0.37500000  0.00000000  0.25000000  1.953125e-03 
  0.37500000  0.00000000  0.37500000  1.953125e-03 
  0.37500000  0.00000000  0.50000000  1.953125e-03 
  0.37500000  0.00000000  0.62500000  1.953125e-03 
  0.37500000  0.00000000  0.75000000  1.953125e-03 
  0.37500000  0.00000000  0.87500000  1.953125e-03 
  0.37500000  0.12500000  0.00000000  1.953125e-03 
  0.37500000  0.12500000  0.12500000  1.953125e-03 
  0.37500000  0.12500000  0.25000000  1.953125e-03 
  0.37500000  0.12500000  0.37500000  1.953125e-03 
  0.37500000  0.12500000  0.50000000  1.953125e-03 
  0.37500000  0.12500000  0.62500000  1.953125e-03 
  0.37500000  0.12500000  0.75000000  1.953125e-03 
  0.37500000  0.12500000  0.87500000  1.953125e-03 
  0.37500000  0.25000000  0.00000000  1.953125e-03 
  0.37500000  0.25000000  0.12500000  1.953125e-03 
  0.37500000  0.25000000  0.25000000  1.953125e-03 
  0.37500000  0.25000000  0.37500000  1.953125e-03 
  0.37500000  0.25000000  0.50000000  1.953125e-03 
  0.37500000  0.25000000  0.62500000  1.953125e-03 
  0.37500000  0.25000000  0.75000000  1.953125e-03 
  0.37500000  0.25000000  0.87500000  1.953125e-03 
  0.37500000  0.37500000  0.00000000  1.953125e-03 
  0.37500000  0.37500000  0.12500000  1.953125e-03 
  0.37500000  0.37500000  0.25000000  1.953125e-03 
  0.37500000  0.37500000  0.37500000  1.953125e-03 
  0.37500000  0.37500000  0.50000000  1.953125e-03 
  0.37500000  0.37500000  0.62500000  1.953125e-03 
  0.37500000  0.37500000  0.75000000  1.953125e-03 
  0.37500000  0.37500000  0.87500000  1.953125e-03 
  0.37500000  0.50000000  0.00000000  1.953125e-03 
  0.37500000  0.50000000  0.12500000  1.953125e-03 
  0.37500000  0.50000000  0.25000000  1.953125e-03 
  0.37500000  0.50000000  0.37500000  1.953125e-03 
  0.37500000  0.50000000  0.50000000  1.953125e-03 
  0.37500000  0.50000000  0.62500000  1.953125e-03 
  0.37500000  0.50000000  0.75000000  1.953125e-03 
  0.37500000  0.50000000  0.87500000  1.953125e-03 
  0.37500000  0.62500000  0.00000000  1.953125e-03 
  0.37500000  0.62500000  0.12500000  1.953125e-03 
  0.37500000  0.62500000  0.25000000  1.953125e-03 
  0.37500000  0.62500000  0.37500000  1.953125e-03 
  0.37500000  0.62500000  0.50000000  1.953125e-03 
  0.37500000  0.62500000  0.62500000  1.953125e-03 
  0.37500000  0.62500000  0.75000000  1.953125e-03 
  0.37500000  0.62500000  0.87500000  1.953125e-03 
  0.37500000  0.75000000  0.00000000  1.953125e-03 
  0.37500000  0.75000000  0.12500000  1.953125e-03 
  0.37500000  0.75000000  0.25000000  1.953125e-03 
  0.37500000  0.75000000  0.37500000  1.953125e-03 
  0.37500000  0.75000000  0.50000000  1.953125e-03 
  0.37500000  0.75000000  0.62500000  1.953125e-03 
  0.37500000  0.75000000  0.75000000  1.953125e-03 
  0.37500000  0.75000000  0.87500000  1.953125e-03 
  0.37500000  0.87500000  0.00000000  1.953125e-03 
  0.37500000  0.87500000  0.12500000  1.953125e-03 
  0.37500000  0.87500000  0.25000000  1.953125e-03 
  0.37500000  0.87500000  0.37500000  1.953125e-03 
  0.37500000  0.87500000  0.50000000  1.953125e-03 
  0.37500000  0.87500000  0.62500000  1.953125e-03 
  0.37500000  0.87500000  0.75000000  1.953125e-03 
  0.37500000  0.87500000  0.87500000  1.953125e-03 
  0.50000000  0.00000000  0.00000000  1.953125e-03 
  0.50000000  0.00000000  0.12500000  1.953125e-03 
  0.50000000  0.00000000  0.25000000  1.953125e-03 
  0.50000000  0.00000000  0.37500000  1.953125e-03 
  0.50000000  0.00000000  0.50000000  1.953125e-03 
  0.50000000  0.00000000  0.62500000  1.953125e-03 
  0.50000000  0.00000000  0.75000000  1.953125e-03 
  0.50000000  0.00000000  0.87500000  1.953125e-03 
  0.50000000  0.12500000  0.00000000  1.953125e-03 
  0.50000000  0.12500000  0.12500000  1.953125e-03 
  0.50000000  0.12500000  0.25000000  1.953125e-03 
  0.50000000  0.12500000  0.37500000  1.953125e-03 
  0.50000000  0.12500000  0.50000000  1.953125e-03 
  0.50000000  0.12500000  0.62500000  1.953125e-03 
  0.50000000  0.12500000  0.75000000  1.953125e-03 
  0.50000000  0.12500000  0.87500000  1.953125e-03 
  0.50000000  0.25000000  0.00000000  1.953125e-03 
  0.50000000  0.25000000  0.12500000  1.953125e-03 
  0.50000000  0.25000000  0.25000000  1.953125e-03 
  0.50000000  0.25000000  0.37500000  1.953125e-03 
  0.50000000  0.25000000  0.50000000  1.953125e-03 
  0.50000000  0.25000000  0.62500000  1.953125e-03 
  0.50000000  0.25000000  0.75000000  1.953125e-03 
  0.50000000  0.25000000  0.87500000  1.953125e-03 
  0.50000000  0.37500000  0.00000000  1.953125e-03 
  0.50000000  0.37500000  0.12500000  1.953125e-03 
  0.50000000  0.37500000  0.25000000  1.953125e-03 
  0.50000000  0.37500000  0.37500000  1.953125e-03 
  0.50000000  0.37500000  0.50000000  1.953125e-03 
  0.50000000  0.37500000  0.62500000  1.953125e-03 
  0.50000000  0.37500000  0.75000000  1.953125e-03 
  0.50000000  0.37500000  0.87500000  1.953125e-03 
  0.50000000  0.50000000  0.00000000  1.953125e-03 
  0.50000000  0.50000000  0.12500000  1.953125e-03 
  0.50000000  0.50000000  0.25000000  1.953125e-03 
  0.50000000  0.50000000  0.37500000  1.953125e-03 
  0.50000000  0.50000000  0.50000000  1.953125e-03 
  0.50000000  0.50000000  0.62500000  1.953125e-03 
  0.50000000  0.50000000  0.75000000  1.953125e-03 
  0.50000000  0.50000000  0.87500000  1.953125e-03 
  0.50000000  0.62500000  0.00000000  1.953125e-03 
  0.50000000  0.62500000  0.12500000  1.953125e-03 
  0.50000000  0.62500000  0.25000000  1.953125e-03 
  0.50000000  0.62500000  0.37500000  1.953125e-03 
  0.50000000  0.62500000  0.50000000  1.953125e-03 
  0.50000000  0.62500000  0.62500000  1.953125e-03 
  0.50000000  0.62500000  0.75000000  1.953125e-03 
  0.50000000  0.62500000  0.87500000  1.953125e-03 
  0.50000000  0.75000000  0.00000000  1.953125e-03 
  0.50000000  0.75000000  0.12500000  1.953125e-03 
  0.50000000  0.75000000  0.25000000  1.953125e-03 
  0.50000000  0.75000000  0.37500000  1.953125e-03 
  0.50000000  0.75000000  0.50000000  1.953125e-03 
  0.50000000  0.75000000  0.62500000  1.953125e-03 
  0.50000000  0.75000000  0.75000000  1.953125e-03 
  0.50000000  0.75000000  0.87500000  1.953125e-03 
  0.50000000  0.87500000  0.00000000  1.953125e-03 
  0.50000000  0.87500000  0.12500000  1.953125e-03 
  0.50000000  0.87500000  0.25000000  1.953125e-03 
  0.50000000  0.87500000  0.37500000  1.953125e-03 
  0.50000000  0.87500000  0.50000000  1.953125e-03 
  0.50000000  0.87500000  0.62500000  1.953125e-03 
  0.50000000  0.87500000  0.75000000  1.953125e-03 
  0.50000000  0.87500000  0.87500000  1.953125e-03 
  0.62500000  0.00000000  0.00000000  1.953125e-03 
  0.62500000  0.00000000  0.12500000  1.953125e-03 
  0.62500000  0.00000000  0.25000000  1.953125e-03 
  0.62500000  0.00000000  0.37500000  1.953125e-03 
  0.62500000  0.00000000  0.50000000  1.953125e-03 
  0.62500000  0.00000000  0.62500000  1.953125e-03 
  0.62500000  0.00000000  0.75000000  1.953125e-03 
  0.62500000  0.00000000  0.87500000  1.953125e-03 
  0.62500000  0.12500000  0.00000000  1.953125e-03 
  0.62500000  0.12500000  0.12500000  1.953125e-03 
  0.62500000  0.12500000  0.25000000  1.953125e-03 
  0.62500000  0.12500000  0.37500000  1.953125e-03 
  0.62500000  0.12500000  0.50000000  1.953125e-03 
  0.62500000  0.12500000  0.62500000  1.953125e-03 
  0.62500000  0.12500000  0.75000000  1.953125e-03 
  0.62500000  0.12500000  0.87500000  1.953125e-03 
  0.62500000  0.25000000  0.00000000  1.953125e-03 
  0.62500000  0.25000000  0.12500000  1.953125e-03 
  0.62500000  0.25000000  0.25000000  1.953125e-03 
  0.62500000  0.25000000  0.37500000  1.953125e-03 
  0.62500000  0.25000000  0.50000000  1.953125e-03 
  0.62500000  0.25000000  0.62500000  1.953125e-03 
  0.62500000  0.25000000  0.75000000  1.953125e-03 
  0.62500000  0.25000000  0.87500000  1.953125e-03 
  0.62500000  0.37500000  0.00000000  1.953125e-03 
  0.62500000  0.37500000  0.12500000  1.953125e-03 
  0.62500000  0.37500000  0.25000000  1.953125e-03 
  0.62500000  0.37500000  0.37500000  1.953125e-03 
  0.62500000  0.37500000  0.50000000  1.953125e-03 
  0.62500000  0.37500000  0.62500000  1.953125e-03 
  0.62500000  0.37500000  0.75000000  1.953125e-03 
  0.62500000  0.37500000  0.87500000  1.953125e-03 
  0.62500000  0.50000000  0.00000000  1.953125e-03 
  0.62500000  0.50000000  0.12500000  1.953125e-03 
  0.62500000  0.50000000  0.25000000  1.953125e-03 
  0.62500000  0.50000000  0.37500000  1.953125e-03 
  0.62500000  0.50000000  0.50000000  1.953125e-03 
  0.62500000  0.50000000  0.62500000  1.953125e-03 
  0.62500000  0.50000000  0.75000000  1.953125e-03 
  0.62500000  0.50000000  0.87500000  1.953125e-03 
  0.62500000  0.62500000  0.00000000  1.953125e-03 
  0.62500000  0.62500000  0.12500000  1.953125e-03 
  0.62500000  0.62500000  0.25000000  1.953125e-03 
  0.62500000  0.62500000  0.37500000  1.953125e-03 
  0.62500000  0.62500000  0.50000000  1.953125e-03 
  0.62500000  0.62500000  0.62500000  1.953125e-03 
  0.62500000  0.62500000  0.75000000  1.953125e-03 
  0.62500000  0.62500000  0.87500000  1.953125e-03 
  0.62500000  0.75000000  0.00000000  1.953125e-03 
  0.62500000  0.75000000  0.12500000  1.953125e-03 
  0.62500000  0.75000000  0.25000000  1.953125e-03 
  0.62500000  0.75000000  0.37500000  1.953125e-03 
  0.62500000  0.75000000  0.50000000  1.953125e-03 
  0.62500000  0.75000000  0.62500000  1.953125e-03 
  0.62500000  0.75000000  0.75000000  1.953125e-03 
  0.62500000  0.75000000  0.87500000  1.953125e-03 
  0.62500000  0.87500000  0.00000000  1.953125e-03 
  0.62500000  0.87500000  0.12500000  1.953125e-03 
  0.62500000  0.87500000  0.25000000  1.953125e-03 
  0.62500000  0.87500000  0.37500000  1.953125e-03 
  0.62500000  0.87500000  0.50000000  1.953125e-03 
  0.62500000  0.87500000  0.62500000  1.953125e-03 
  0.62500000  0.87500000  0.75000000  1.953125e-03 
  0.62500000  0.87500000  0.87500000  1.953125e-03 
  0.75000000  0.00000000  0.00000000  1.953125e-03 
  0.75000000  0.00000000  0.12500000  1.953125e-03 
  0.75000000  0.00000000  0.25000000  1.953125e-03 
  0.75000000  0.00000000  0.37500000  1.953125e-03 
  0.75000000  0.00000000  0.50000000  1.953125e-03 
  0.75000000  0.00000000  0.62500000  1.953125e-03 
  0.75000000  0.00000000  0.75000000  1.953125e-03 
  0.75000000  0.00000000  0.87500000  1.953125e-03 
  0.75000000  0.12500000  0.00000000  1.953125e-03 
  0.75000000  0.12500000  0.12500000  1.953125e-03 
  0.75000000  0.12500000  0.25000000  1.953125e-03 
  0.75000000  0.12500000  0.37500000  1.953125e-03 
  0.75000000  0.12500000  0.50000000  1.953125e-03 
  0.75000000  0.12500000  0.62500000  1.953125e-03 
  0.75000000  0.12500000  0.75000000  1.953125e-03 
  0.75000000  0.12500000  0.87500000  1.953125e-03 
  0.75000000  0.25000000  0.00000000  1.953125e-03 
  0.75000000  0.25000000  0.12500000  1.953125e-03 
  0.75000000  0.25000000  0.25000000  1.953125e-03 
  0.75000000  0.25000000  0.37500000  1.953125e-03 
  0.75000000  0.25000000  0.50000000  1.953125e-03 
  0.75000000  0.25000000  0.62500000  1.953125e-03 
  0.75000000  0.25000000  0.75000000  1.953125e-03 
  0.75000000  0.25000000  0.87500000  1.953125e-03 
  0.75000000  0.37500000  0.00000000  1.953125e-03 
  0.75000000  0.37500000  0.12500000  1.953125e-03 
  0.75000000  0.37500000  0.25000000  1.953125e-03 
  0.75000000  0.37500000  0.37500000  1.953125e-03 
  0.75000000  0.37500000  0.50000000  1.953125e-03 
  0.75000000  0.37500000  0.62500000  1.953125e-03 
  0.75000000  0.37500000  0.75000000  1.953125e-03 
  0.75000000  0.37500000  0.87500000  1.953125e-03 
  0.75000000  0.50000000  0.00000000  1.953125e-03 
  0.75000000  0.50000000  0.12500000  1.953125e-03 
  0.75000000  0.50000000  0.25000000  1.953125e-03 
  0.75000000  0.50000000  0.37500000  1.953125e-03 
  0.75000000  0.50000000  0.50000000  1.953125e-03 
  0.75000000  0.50000000  0.62500000  1.953125e-03 
  0.75000000  0.50000000  0.75000000  1.953125e-03 
  0.75000000  0.50000000  0.87500000  1.953125e-03 
  0.75000000  0.62500000  0.00000000  1.953125e-03 
  0.75000000  0.62500000  0.12500000  1.953125e-03 
  0.75000000  0.62500000  0.25000000  1.953125e-03 
  0.75000000  0.62500000  0.37500000  1.953125e-03 
  0.75000000  0.62500000  0.50000000  1.953125e-03 
  0.75000000  0.62500000  0.62500000  1.953125e-03 
  0.75000000  0.62500000  0.75000000  1.953125e-03 
  0.75000000  0.62500000  0.87500000  1.953125e-03 
  0.75000000  0.75000000  0.00000000  1.953125e-03 
  0.75000000  0.75000000  0.12500000  1.953125e-03 
  0.75000000  0.75000000  0.25000000  1.953125e-03 
  0.75000000  0.75000000  0.37500000  1.953125e-03 
  0.75000000  0.75000000  0.50000000  1.953125e-03 
  0.75000000  0.75000000  0.62500000  1.953125e-03 
  0.75000000  0.75000000  0.75000000  1.953125e-03 
  0.75000000  0.75000000  0.87500000  1.953125e-03 
  0.75000000  0.87500000  0.00000000  1.953125e-03 
  0.75000000  0.87500000  0.12500000  1.953125e-03 
  0.75000000  0.87500000  0.25000000  1.953125e-03 
  0.75000000  0.87500000  0.37500000  1.953125e-03 
  0.75000000  0.87500000  0.50000000  1.953125e-03 
  0.75000000  0.87500000  0.62500000  1.953125e-03 
  0.75000000  0.87500000  0.75000000  1.953125e-03 
  0.75000000  0.87500000  0.87500000  1.953125e-03 
  0.87500000  0.00000000  0.00000000  1.953125e-03 
  0.87500000  0.00000000  0.12500000  1.953125e-03 
  0.87500000  0.00000000  0.25000000  1.953125e-03 
  0.87500000  0.00000000  0.37500000  1.953125e-03 
  0.87500000  0.00000000  0.50000000  1.953125e-03 
  0.87500000  0.00000000  0.62500000  1.953125e-03 
  0.87500000  0.00000000  0.75000000  1.953125e-03 
  0.87500000  0.00000000  0.87500000  1.953125e-03 
  0.87500000  0.12500000  0.00000000  1.953125e-03 
  0.87500000  0.12500000  0.12500000  1.953125e-03 
  0.87500000  0.12500000  0.25000000  1.953125e-03 
  0.87500000  0.12500000  0.37500000  1.953125e-03 
  0.87500000  0.12500000  0.50000000  1.953125e-03 
  0.87500000  0.12500000  0.62500000  1.953125e-03 
  0.87500000  0.12500000  0.75000000  1.953125e-03 
  0.87500000  0.12500000  0.87500000  1.953125e-03 
  0.87500000  0.25000000  0.00000000  1.953125e-03 
  0.87500000  0.25000000  0.12500000  1.953125e-03 
  0.87500000  0.25000000  0.25000000  1.953125e-03 
  0.87500000  0.25000000  0.37500000  1.953125e-03 
  0.87500000  0.25000000  0.50000000  1.953125e-03 
  0.87500000  0.25000000  0.62500000  1.953125e-03 
  0.87500000  0.25000000  0.75000000  1.953125e-03 
  0.87500000  0.25000000  0.87500000  1.953125e-03 
  0.87500000  0.37500000  0.00000000  1.953125e-03 
  0.87500000  0.37500000  0.12500000  1.953125e-03 
  0.87500000  0.37500000  0.25000000  1.953125e-03 
  0.87500000  0.37500000  0.37500000  1.953125e-03 
  0.87500000  0.37500000  0.50000000  1.953125e-03 
  0.87500000  0.37500000  0.62500000  1.953125e-03 
  0.87500000  0.37500000  0.75000000  1.953125e-03 
  0.87500000  0.37500000  0.87500000  1.953125e-03 
  0.87500000  0.50000000  0.00000000  1.953125e-03 
  0.87500000  0.50000000  0.12500000  1.953125e-03 
  0.87500000  0.50000000  0.25000000  1.953125e-03 
  0.87500000  0.50000000  0.37500000  1.953125e-03 
  0.87500000  0.50000000  0.50000000  1.953125e-03 
  0.87500000  0.50000000  0.62500000  1.953125e-03 
  0.87500000  0.50000000  0.75000000  1.953125e-03 
  0.87500000  0.50000000  0.87500000  1.953125e-03 
  0.87500000  0.62500000  0.00000000  1.953125e-03 
  0.87500000  0.62500000  0.12500000  1.953125e-03 
  0.87500000  0.62500000  0.25000000  1.953125e-03 
  0.87500000  0.62500000  0.37500000  1.953125e-03 
  0.87500000  0.62500000  0.50000000  1.953125e-03 
  0.87500000  0.62500000  0.62500000  1.953125e-03 
  0.87500000  0.62500000  0.75000000  1.953125e-03 
  0.87500000  0.62500000  0.87500000  1.953125e-03 
  0.87500000  0.75000000  0.00000000  1.953125e-03 
  0.87500000  0.75000000  0.12500000  1.953125e-03 
  0.87500000  0.75000000  0.25000000  1.953125e-03 
  0.87500000  0.75000000  0.37500000  1.953125e-03 
  0.87500000  0.75000000  0.50000000  1.953125e-03 
  0.87500000  0.75000000  0.62500000  1.953125e-03 
  0.87500000  0.75000000  0.75000000  1.953125e-03 
  0.87500000  0.75000000  0.87500000  1.953125e-03 
  0.87500000  0.87500000  0.00000000  1.953125e-03 
  0.87500000  0.87500000  0.12500000  1.953125e-03 
  0.87500000  0.87500000  0.25000000  1.953125e-03 
  0.87500000  0.87500000  0.37500000  1.953125e-03 
  0.87500000  0.87500000  0.50000000  1.953125e-03 
  0.87500000  0.87500000  0.62500000  1.953125e-03 
  0.87500000  0.87500000  0.75000000  1.953125e-03 
  0.87500000  0.87500000  0.87500000  1.953125e-03